17	4
14	12	12	11	
0	0	0	0	0	3	2	3	4	
3	0	0	0	4	3	5	17	17	
4	4	9	1	4	1	16	
2	4	0	2	0	1	14	
10	6	2	10	0	3	6	8	10	
225	0	9	10	0	3	7	9	12	
125	4	0	0	0	3	11	17	17	
75	5	3	5	2	1	17	
225	4	0	6	0	2	11	15	
125	10	4	0	0	2	12	17	
175	8	0	9	0	1	13	
150	2	9	0	2	2	15	17	
1	0	0	4	0	1	17	
9	5	4	0	6	1	17	
4	1	0	0	0	1	17	
8	2	0	0	9	1	17	
0	0	0	0	0	0	
